unsat
(:cnf-encoding-aux-vars 11
 :elim-unconstrained    3
 :max-memory            18.73
 :memory                18.54
 :nlsat-arith-var       6
 :nlsat-atoms           43
 :nlsat-bool-var        17
 :nlsat-clauses         89
 :nlsat-conflicts       3
 :nlsat-decisions       20
 :nlsat-propagations    15
 :num-allocs            114648
 :rlimit-count          15622
 :solve-eqs-elim-vars   30
 :solve-eqs-steps       52
 :time                  0.01
 :total-time            0.02)
